





































































































74 65 68 49 46 51 61 
58 18 34 27 75 20 
72 9 59 36 63 2 1 
24 57 53 38 40 52 76 
41 39 32 35 13 29 

33 22 54 44 71 43 73 
60 23 62 0 50 25 
55 8 31 48 19 70 12 
15 45 14 16 6 10 
66 67 4 37 21 11 
69 26 30 56 3 64 
5 17 47 42 28 7 
